7,8	0,0	10,3	6,6	0,0	0,0	0,0	0,0	0,0	14,2
7,5	14,0	0,0	15,8	11,8	0,0	0,0	16,2	0,0	0,0
0,0	0,0	17,1	0,0	16,1	13,6	0,0	0,0	19,7	0,0
11,0	0,0	8,9	0,0	0,0	0,0	9,7	0,0	0,0	0,0
0,0	7,8	0,0	6,9	8,4	0,0	0,0	14,3	0,0	0,0
0,0	6,2	18,5	0,0	17,9	7,7	0,0	0,0	11,8	0,0
0,0	10,0	0,0	8,7	0,0	0,0	19,1	0,0	0,0	11,0
13,7	0,0	10,8	0,0	0,0	0,0	0,0	0,0	0,0	17,1
0,0	16,6	0,0	11,0	14,8	0,0	0,0	14,8	0,0	0,0
0,0	0,0	11,9	0,0	0,0	6,0	15,6	0,0	0,0	5,4
0,0	14,0	0,0	0,0	12,8	0,0	11,0	0,0	18,7	12,8
14,9	0,0	16,9	0,0	16,0	0,0	6,1	10,1	6,0	0,0
0,0	19,3	0,0	0,0	0,0	12,7	0,0	16,0	15,2	16,8
11,0	5,2	20,0	0,0	0,0	7,8	0,0	18,7	7,9	0,0
17,3	0,0	10,4	0,0	17,3	18,7	10,9	19,2	0,0	0,0
0,0	11,4	0,0	13,2	0,0	12,9	0,0	5,6	0,0	0,0
12,7	0,0	19,8	15,3	7,3	0,0	0,0	13,4	0,0	0,0
0,0	0,0	14,6	0,0	0,0	6,1	15,4	0,0	14,8	5,5
7,9	0,0	0,0	16,0	15,0	18,0	10,7	15,3	0,0	10,7
0,0	12,0	0,0	6,6	0,0	0,0	14,3	0,0	11,2	13,5
									
4,3	4,0	2,7	4,6	3,4	4,7	4,7	3,4	5,0	3,1
